\ Model master model
\ LP format - for model browsing. Use MPS format to capture full model detail.
Minimize
  0.5 L
Subject To
 epigraph[0]: 536 x[0,1] + 165 x[0,2] + 990 x[0,3] + 269 x[0,4]
   + 597 x[0,5] + 643 x[0,6] + 110 x[0,7] + 131 x[0,8] + 525 x[0,9]
   + 125 x[0,10] + 1041 x[0,11] + 870 x[0,12] + 562 x[0,13] + 614 x[0,14]
   + 589 x[0,15] + 478 x[0,16] + 306 x[0,17] + 592 x[0,18] + 813 x[0,19]
   - L <= 0
 epigraph[1]: 441 x[1,0] + 702 x[1,2] + 844 x[1,3] + 754 x[1,4]
   + 285 x[1,5] + 1024 x[1,6] + 164 x[1,7] + 802 x[1,8] + 459 x[1,9]
   + 556 x[1,10] + 424 x[1,11] + 882 x[1,12] + 775 x[1,13] + 801 x[1,14]
   + 278 x[1,15] + 840 x[1,16] + 965 x[1,17] + 1041 x[1,18] + 964 x[1,19]
   - L <= 0
 epigraph[2]: 565 x[2,0] + 498 x[2,1] + 442 x[2,3] + 661 x[2,4]
   + 206 x[2,5] + 303 x[2,6] + 272 x[2,7] + 499 x[2,8] + 1055 x[2,9]
   + 529 x[2,10] + 377 x[2,11] + 108 x[2,12] + 173 x[2,13] + 951 x[2,14]
   + 863 x[2,15] + 183 x[2,16] + 462 x[2,17] + 1005 x[2,18] + 285 x[2,19]
   - L <= 0
 epigraph[3]: 1079 x[3,0] + 254 x[3,1] + 737 x[3,2] + 202 x[3,4]
   + 139 x[3,5] + 689 x[3,6] + 186 x[3,7] + 786 x[3,8] + 875 x[3,9]
   + 442 x[3,10] + 838 x[3,11] + 324 x[3,12] + 176 x[3,13] + 465 x[3,14]
   + 760 x[3,15] + 663 x[3,16] + 241 x[3,17] + 990 x[3,18] + 826 x[3,19]
   - L <= 0
 epigraph[4]: 157 x[4,0] + 970 x[4,1] + 927 x[4,2] + 983 x[4,3]
   + 510 x[4,5] + 429 x[4,6] + 332 x[4,7] + 1036 x[4,8] + 621 x[4,9]
   + 235 x[4,10] + 374 x[4,11] + 415 x[4,12] + 740 x[4,13] + 235 x[4,14]
   + 385 x[4,15] + 217 x[4,16] + 775 x[4,17] + 310 x[4,18] + 366 x[4,19]
   - L <= 0
 epigraph[5]: 440 x[5,0] + 983 x[5,1] + 432 x[5,2] + 207 x[5,3]
   + 418 x[5,4] + 1022 x[5,6] + 448 x[5,7] + 867 x[5,8] + 891 x[5,9]
   + 927 x[5,10] + 787 x[5,11] + 462 x[5,12] + 784 x[5,13] + 764 x[5,14]
   + 168 x[5,15] + 660 x[5,16] + 194 x[5,17] + 963 x[5,18] + 530 x[5,19]
   - L <= 0
 epigraph[6]: 223 x[6,0] + 996 x[6,1] + 1010 x[6,2] + 749 x[6,3]
   + 657 x[6,4] + 232 x[6,5] + 435 x[6,7] + 997 x[6,8] + 855 x[6,9]
   + 426 x[6,10] + 776 x[6,11] + 767 x[6,12] + 233 x[6,13] + 977 x[6,14]
   + 621 x[6,15] + 914 x[6,16] + 276 x[6,17] + 546 x[6,18] + 293 x[6,19]
   - L <= 0
 epigraph[7]: 725 x[7,0] + 116 x[7,1] + 955 x[7,2] + 625 x[7,3]
   + 660 x[7,4] + 561 x[7,5] + 916 x[7,6] + 832 x[7,8] + 580 x[7,9]
   + 209 x[7,10] + 137 x[7,11] + 107 x[7,12] + 120 x[7,13] + 443 x[7,14]
   + 385 x[7,15] + 288 x[7,16] + 174 x[7,17] + 1075 x[7,18] + 917 x[7,19]
   - L <= 0
 epigraph[8]: 235 x[8,0] + 209 x[8,1] + 1079 x[8,2] + 923 x[8,3]
   + 489 x[8,4] + 905 x[8,5] + 1037 x[8,6] + 763 x[8,7] + 554 x[8,9]
   + 226 x[8,10] + 893 x[8,11] + 696 x[8,12] + 199 x[8,13] + 620 x[8,14]
   + 803 x[8,15] + 106 x[8,16] + 627 x[8,17] + 1025 x[8,18] + 211 x[8,19]
   - L <= 0
 epigraph[9]: 944 x[9,0] + 303 x[9,1] + 992 x[9,2] + 839 x[9,3]
   + 946 x[9,4] + 930 x[9,5] + 912 x[9,6] + 118 x[9,7] + 662 x[9,8]
   + 770 x[9,10] + 328 x[9,11] + 307 x[9,12] + 323 x[9,13] + 547 x[9,14]
   + 547 x[9,15] + 598 x[9,16] + 269 x[9,17] + 155 x[9,18] + 838 x[9,19]
   - L <= 0
 epigraph[10]: 573 x[10,0] + 898 x[10,1] + 1085 x[10,2] + 132 x[10,3]
   + 613 x[10,4] + 875 x[10,5] + 967 x[10,6] + 700 x[10,7] + 820 x[10,8]
   + 854 x[10,9] + 206 x[10,11] + 646 x[10,12] + 233 x[10,13]
   + 667 x[10,14] + 283 x[10,15] + 587 x[10,16] + 145 x[10,17]
   + 368 x[10,18] + 797 x[10,19] - L <= 0
 epigraph[11]: 841 x[11,0] + 983 x[11,1] + 927 x[11,2] + 290 x[11,3]
   + 1099 x[11,4] + 574 x[11,5] + 365 x[11,6] + 841 x[11,7] + 526 x[11,8]
   + 876 x[11,9] + 815 x[11,10] + 1089 x[11,12] + 657 x[11,13]
   + 217 x[11,14] + 747 x[11,15] + 101 x[11,16] + 230 x[11,17]
   + 202 x[11,18] + 448 x[11,19] - L <= 0
 epigraph[12]: 906 x[12,0] + 907 x[12,1] + 103 x[12,2] + 188 x[12,3]
   + 511 x[12,4] + 183 x[12,5] + 423 x[12,6] + 758 x[12,7] + 865 x[12,8]
   + 387 x[12,9] + 238 x[12,10] + 1012 x[12,11] + 850 x[12,13]
   + 791 x[12,14] + 605 x[12,15] + 806 x[12,16] + 318 x[12,17]
   + 944 x[12,18] + 747 x[12,19] - L <= 0
 epigraph[13]: 380 x[13,0] + 445 x[13,1] + 960 x[13,2] + 255 x[13,3]
   + 699 x[13,4] + 309 x[13,5] + 207 x[13,6] + 570 x[13,7] + 652 x[13,8]
   + 649 x[13,9] + 172 x[13,10] + 420 x[13,11] + 635 x[13,12]
   + 869 x[13,14] + 199 x[13,15] + 388 x[13,16] + 526 x[13,17]
   + 392 x[13,18] + 979 x[13,19] - L <= 0
 epigraph[14]: 699 x[14,0] + 725 x[14,1] + 539 x[14,2] + 327 x[14,3]
   + 370 x[14,4] + 889 x[14,5] + 1033 x[14,6] + 830 x[14,7] + 378 x[14,8]
   + 429 x[14,9] + 147 x[14,10] + 927 x[14,11] + 534 x[14,12]
   + 196 x[14,13] + 836 x[14,15] + 320 x[14,16] + 234 x[14,17]
   + 1045 x[14,18] + 798 x[14,19] - L <= 0
 epigraph[15]: 631 x[15,0] + 1054 x[15,1] + 487 x[15,2] + 680 x[15,3]
   + 971 x[15,4] + 470 x[15,5] + 1030 x[15,6] + 399 x[15,7] + 336 x[15,8]
   + 152 x[15,9] + 504 x[15,10] + 555 x[15,11] + 772 x[15,12]
   + 379 x[15,13] + 223 x[15,14] + 700 x[15,16] + 257 x[15,17]
   + 671 x[15,18] + 477 x[15,19] - L <= 0
 epigraph[16]: 946 x[16,0] + 250 x[16,1] + 951 x[16,2] + 1063 x[16,3]
   + 727 x[16,4] + 649 x[16,5] + 289 x[16,6] + 1082 x[16,7] + 1014 x[16,8]
   + 740 x[16,9] + 512 x[16,10] + 324 x[16,11] + 504 x[16,12]
   + 853 x[16,13] + 620 x[16,14] + 895 x[16,15] + 1096 x[16,17]
   + 635 x[16,18] + 197 x[16,19] - L <= 0
 epigraph[17]: 1090 x[17,0] + 815 x[17,1] + 1066 x[17,2] + 582 x[17,3]
   + 548 x[17,4] + 803 x[17,5] + 606 x[17,6] + 300 x[17,7] + 137 x[17,8]
   + 264 x[17,9] + 870 x[17,10] + 730 x[17,11] + 798 x[17,12]
   + 1069 x[17,13] + 413 x[17,14] + 900 x[17,15] + 338 x[17,16]
   + 628 x[17,18] + 910 x[17,19] - L <= 0
 epigraph[18]: 264 x[18,0] + 805 x[18,1] + 420 x[18,2] + 577 x[18,3]
   + 318 x[18,4] + 158 x[18,5] + 351 x[18,6] + 420 x[18,7] + 549 x[18,8]
   + 970 x[18,9] + 968 x[18,10] + 513 x[18,11] + 516 x[18,12]
   + 1069 x[18,13] + 415 x[18,14] + 646 x[18,15] + 981 x[18,16]
   + 906 x[18,17] + 1076 x[18,19] - L <= 0
 epigraph[19]: 649 x[19,0] + 237 x[19,1] + 508 x[19,2] + 961 x[19,3]
   + 335 x[19,4] + 878 x[19,5] + 299 x[19,6] + 798 x[19,7] + 422 x[19,8]
   + 274 x[19,9] + 905 x[19,10] + 878 x[19,11] + 870 x[19,12]
   + 555 x[19,13] + 285 x[19,14] + 399 x[19,15] + 478 x[19,16]
   + 151 x[19,17] + 1047 x[19,18] - L <= 0
 p: y[0] + y[1] + y[2] + y[3] + y[4] + y[5] + y[6] + y[7] + y[8] + y[9]
   + y[10] + y[11] + y[12] + y[13] + y[14] + y[15] + y[16] + y[17] + y[18]
   + y[19] = 7
 x<y[0,0]: x[0,0] - y[0] <= 0
 x<y[0,1]: x[0,1] - y[1] <= 0
 x<y[0,2]: x[0,2] - y[2] <= 0
 x<y[0,3]: x[0,3] - y[3] <= 0
 x<y[0,4]: x[0,4] - y[4] <= 0
 x<y[0,5]: x[0,5] - y[5] <= 0
 x<y[0,6]: x[0,6] - y[6] <= 0
 x<y[0,7]: x[0,7] - y[7] <= 0
 x<y[0,8]: x[0,8] - y[8] <= 0
 x<y[0,9]: x[0,9] - y[9] <= 0
 x<y[0,10]: x[0,10] - y[10] <= 0
 x<y[0,11]: x[0,11] - y[11] <= 0
 x<y[0,12]: x[0,12] - y[12] <= 0
 x<y[0,13]: x[0,13] - y[13] <= 0
 x<y[0,14]: x[0,14] - y[14] <= 0
 x<y[0,15]: x[0,15] - y[15] <= 0
 x<y[0,16]: x[0,16] - y[16] <= 0
 x<y[0,17]: x[0,17] - y[17] <= 0
 x<y[0,18]: x[0,18] - y[18] <= 0
 x<y[0,19]: x[0,19] - y[19] <= 0
 x<y[1,0]: x[1,0] - y[0] <= 0
 x<y[1,1]: x[1,1] - y[1] <= 0
 x<y[1,2]: x[1,2] - y[2] <= 0
 x<y[1,3]: x[1,3] - y[3] <= 0
 x<y[1,4]: x[1,4] - y[4] <= 0
 x<y[1,5]: x[1,5] - y[5] <= 0
 x<y[1,6]: x[1,6] - y[6] <= 0
 x<y[1,7]: x[1,7] - y[7] <= 0
 x<y[1,8]: x[1,8] - y[8] <= 0
 x<y[1,9]: x[1,9] - y[9] <= 0
 x<y[1,10]: x[1,10] - y[10] <= 0
 x<y[1,11]: x[1,11] - y[11] <= 0
 x<y[1,12]: x[1,12] - y[12] <= 0
 x<y[1,13]: x[1,13] - y[13] <= 0
 x<y[1,14]: x[1,14] - y[14] <= 0
 x<y[1,15]: x[1,15] - y[15] <= 0
 x<y[1,16]: x[1,16] - y[16] <= 0
 x<y[1,17]: x[1,17] - y[17] <= 0
 x<y[1,18]: x[1,18] - y[18] <= 0
 x<y[1,19]: x[1,19] - y[19] <= 0
 x<y[2,0]: x[2,0] - y[0] <= 0
 x<y[2,1]: x[2,1] - y[1] <= 0
 x<y[2,2]: x[2,2] - y[2] <= 0
 x<y[2,3]: x[2,3] - y[3] <= 0
 x<y[2,4]: x[2,4] - y[4] <= 0
 x<y[2,5]: x[2,5] - y[5] <= 0
 x<y[2,6]: x[2,6] - y[6] <= 0
 x<y[2,7]: x[2,7] - y[7] <= 0
 x<y[2,8]: x[2,8] - y[8] <= 0
 x<y[2,9]: x[2,9] - y[9] <= 0
 x<y[2,10]: x[2,10] - y[10] <= 0
 x<y[2,11]: x[2,11] - y[11] <= 0
 x<y[2,12]: x[2,12] - y[12] <= 0
 x<y[2,13]: x[2,13] - y[13] <= 0
 x<y[2,14]: x[2,14] - y[14] <= 0
 x<y[2,15]: x[2,15] - y[15] <= 0
 x<y[2,16]: x[2,16] - y[16] <= 0
 x<y[2,17]: x[2,17] - y[17] <= 0
 x<y[2,18]: x[2,18] - y[18] <= 0
 x<y[2,19]: x[2,19] - y[19] <= 0
 x<y[3,0]: x[3,0] - y[0] <= 0
 x<y[3,1]: x[3,1] - y[1] <= 0
 x<y[3,2]: x[3,2] - y[2] <= 0
 x<y[3,3]: x[3,3] - y[3] <= 0
 x<y[3,4]: x[3,4] - y[4] <= 0
 x<y[3,5]: x[3,5] - y[5] <= 0
 x<y[3,6]: x[3,6] - y[6] <= 0
 x<y[3,7]: x[3,7] - y[7] <= 0
 x<y[3,8]: x[3,8] - y[8] <= 0
 x<y[3,9]: x[3,9] - y[9] <= 0
 x<y[3,10]: x[3,10] - y[10] <= 0
 x<y[3,11]: x[3,11] - y[11] <= 0
 x<y[3,12]: x[3,12] - y[12] <= 0
 x<y[3,13]: x[3,13] - y[13] <= 0
 x<y[3,14]: x[3,14] - y[14] <= 0
 x<y[3,15]: x[3,15] - y[15] <= 0
 x<y[3,16]: x[3,16] - y[16] <= 0
 x<y[3,17]: x[3,17] - y[17] <= 0
 x<y[3,18]: x[3,18] - y[18] <= 0
 x<y[3,19]: x[3,19] - y[19] <= 0
 x<y[4,0]: x[4,0] - y[0] <= 0
 x<y[4,1]: x[4,1] - y[1] <= 0
 x<y[4,2]: x[4,2] - y[2] <= 0
 x<y[4,3]: x[4,3] - y[3] <= 0
 x<y[4,4]: x[4,4] - y[4] <= 0
 x<y[4,5]: x[4,5] - y[5] <= 0
 x<y[4,6]: x[4,6] - y[6] <= 0
 x<y[4,7]: x[4,7] - y[7] <= 0
 x<y[4,8]: x[4,8] - y[8] <= 0
 x<y[4,9]: x[4,9] - y[9] <= 0
 x<y[4,10]: x[4,10] - y[10] <= 0
 x<y[4,11]: x[4,11] - y[11] <= 0
 x<y[4,12]: x[4,12] - y[12] <= 0
 x<y[4,13]: x[4,13] - y[13] <= 0
 x<y[4,14]: x[4,14] - y[14] <= 0
 x<y[4,15]: x[4,15] - y[15] <= 0
 x<y[4,16]: x[4,16] - y[16] <= 0
 x<y[4,17]: x[4,17] - y[17] <= 0
 x<y[4,18]: x[4,18] - y[18] <= 0
 x<y[4,19]: x[4,19] - y[19] <= 0
 x<y[5,0]: x[5,0] - y[0] <= 0
 x<y[5,1]: x[5,1] - y[1] <= 0
 x<y[5,2]: x[5,2] - y[2] <= 0
 x<y[5,3]: x[5,3] - y[3] <= 0
 x<y[5,4]: x[5,4] - y[4] <= 0
 x<y[5,5]: x[5,5] - y[5] <= 0
 x<y[5,6]: x[5,6] - y[6] <= 0
 x<y[5,7]: x[5,7] - y[7] <= 0
 x<y[5,8]: x[5,8] - y[8] <= 0
 x<y[5,9]: x[5,9] - y[9] <= 0
 x<y[5,10]: x[5,10] - y[10] <= 0
 x<y[5,11]: x[5,11] - y[11] <= 0
 x<y[5,12]: x[5,12] - y[12] <= 0
 x<y[5,13]: x[5,13] - y[13] <= 0
 x<y[5,14]: x[5,14] - y[14] <= 0
 x<y[5,15]: x[5,15] - y[15] <= 0
 x<y[5,16]: x[5,16] - y[16] <= 0
 x<y[5,17]: x[5,17] - y[17] <= 0
 x<y[5,18]: x[5,18] - y[18] <= 0
 x<y[5,19]: x[5,19] - y[19] <= 0
 x<y[6,0]: x[6,0] - y[0] <= 0
 x<y[6,1]: x[6,1] - y[1] <= 0
 x<y[6,2]: x[6,2] - y[2] <= 0
 x<y[6,3]: x[6,3] - y[3] <= 0
 x<y[6,4]: x[6,4] - y[4] <= 0
 x<y[6,5]: x[6,5] - y[5] <= 0
 x<y[6,6]: x[6,6] - y[6] <= 0
 x<y[6,7]: x[6,7] - y[7] <= 0
 x<y[6,8]: x[6,8] - y[8] <= 0
 x<y[6,9]: x[6,9] - y[9] <= 0
 x<y[6,10]: x[6,10] - y[10] <= 0
 x<y[6,11]: x[6,11] - y[11] <= 0
 x<y[6,12]: x[6,12] - y[12] <= 0
 x<y[6,13]: x[6,13] - y[13] <= 0
 x<y[6,14]: x[6,14] - y[14] <= 0
 x<y[6,15]: x[6,15] - y[15] <= 0
 x<y[6,16]: x[6,16] - y[16] <= 0
 x<y[6,17]: x[6,17] - y[17] <= 0
 x<y[6,18]: x[6,18] - y[18] <= 0
 x<y[6,19]: x[6,19] - y[19] <= 0
 x<y[7,0]: x[7,0] - y[0] <= 0
 x<y[7,1]: x[7,1] - y[1] <= 0
 x<y[7,2]: x[7,2] - y[2] <= 0
 x<y[7,3]: x[7,3] - y[3] <= 0
 x<y[7,4]: x[7,4] - y[4] <= 0
 x<y[7,5]: x[7,5] - y[5] <= 0
 x<y[7,6]: x[7,6] - y[6] <= 0
 x<y[7,7]: x[7,7] - y[7] <= 0
 x<y[7,8]: x[7,8] - y[8] <= 0
 x<y[7,9]: x[7,9] - y[9] <= 0
 x<y[7,10]: x[7,10] - y[10] <= 0
 x<y[7,11]: x[7,11] - y[11] <= 0
 x<y[7,12]: x[7,12] - y[12] <= 0
 x<y[7,13]: x[7,13] - y[13] <= 0
 x<y[7,14]: x[7,14] - y[14] <= 0
 x<y[7,15]: x[7,15] - y[15] <= 0
 x<y[7,16]: x[7,16] - y[16] <= 0
 x<y[7,17]: x[7,17] - y[17] <= 0
 x<y[7,18]: x[7,18] - y[18] <= 0
 x<y[7,19]: x[7,19] - y[19] <= 0
 x<y[8,0]: x[8,0] - y[0] <= 0
 x<y[8,1]: x[8,1] - y[1] <= 0
 x<y[8,2]: x[8,2] - y[2] <= 0
 x<y[8,3]: x[8,3] - y[3] <= 0
 x<y[8,4]: x[8,4] - y[4] <= 0
 x<y[8,5]: x[8,5] - y[5] <= 0
 x<y[8,6]: x[8,6] - y[6] <= 0
 x<y[8,7]: x[8,7] - y[7] <= 0
 x<y[8,8]: x[8,8] - y[8] <= 0
 x<y[8,9]: x[8,9] - y[9] <= 0
 x<y[8,10]: x[8,10] - y[10] <= 0
 x<y[8,11]: x[8,11] - y[11] <= 0
 x<y[8,12]: x[8,12] - y[12] <= 0
 x<y[8,13]: x[8,13] - y[13] <= 0
 x<y[8,14]: x[8,14] - y[14] <= 0
 x<y[8,15]: x[8,15] - y[15] <= 0
 x<y[8,16]: x[8,16] - y[16] <= 0
 x<y[8,17]: x[8,17] - y[17] <= 0
 x<y[8,18]: x[8,18] - y[18] <= 0
 x<y[8,19]: x[8,19] - y[19] <= 0
 x<y[9,0]: x[9,0] - y[0] <= 0
 x<y[9,1]: x[9,1] - y[1] <= 0
 x<y[9,2]: x[9,2] - y[2] <= 0
 x<y[9,3]: x[9,3] - y[3] <= 0
 x<y[9,4]: x[9,4] - y[4] <= 0
 x<y[9,5]: x[9,5] - y[5] <= 0
 x<y[9,6]: x[9,6] - y[6] <= 0
 x<y[9,7]: x[9,7] - y[7] <= 0
 x<y[9,8]: x[9,8] - y[8] <= 0
 x<y[9,9]: x[9,9] - y[9] <= 0
 x<y[9,10]: x[9,10] - y[10] <= 0
 x<y[9,11]: x[9,11] - y[11] <= 0
 x<y[9,12]: x[9,12] - y[12] <= 0
 x<y[9,13]: x[9,13] - y[13] <= 0
 x<y[9,14]: x[9,14] - y[14] <= 0
 x<y[9,15]: x[9,15] - y[15] <= 0
 x<y[9,16]: x[9,16] - y[16] <= 0
 x<y[9,17]: x[9,17] - y[17] <= 0
 x<y[9,18]: x[9,18] - y[18] <= 0
 x<y[9,19]: x[9,19] - y[19] <= 0
 x<y[10,0]: x[10,0] - y[0] <= 0
 x<y[10,1]: x[10,1] - y[1] <= 0
 x<y[10,2]: x[10,2] - y[2] <= 0
 x<y[10,3]: x[10,3] - y[3] <= 0
 x<y[10,4]: x[10,4] - y[4] <= 0
 x<y[10,5]: x[10,5] - y[5] <= 0
 x<y[10,6]: x[10,6] - y[6] <= 0
 x<y[10,7]: x[10,7] - y[7] <= 0
 x<y[10,8]: x[10,8] - y[8] <= 0
 x<y[10,9]: x[10,9] - y[9] <= 0
 x<y[10,10]: x[10,10] - y[10] <= 0
 x<y[10,11]: x[10,11] - y[11] <= 0
 x<y[10,12]: x[10,12] - y[12] <= 0
 x<y[10,13]: x[10,13] - y[13] <= 0
 x<y[10,14]: x[10,14] - y[14] <= 0
 x<y[10,15]: x[10,15] - y[15] <= 0
 x<y[10,16]: x[10,16] - y[16] <= 0
 x<y[10,17]: x[10,17] - y[17] <= 0
 x<y[10,18]: x[10,18] - y[18] <= 0
 x<y[10,19]: x[10,19] - y[19] <= 0
 x<y[11,0]: x[11,0] - y[0] <= 0
 x<y[11,1]: x[11,1] - y[1] <= 0
 x<y[11,2]: x[11,2] - y[2] <= 0
 x<y[11,3]: x[11,3] - y[3] <= 0
 x<y[11,4]: x[11,4] - y[4] <= 0
 x<y[11,5]: x[11,5] - y[5] <= 0
 x<y[11,6]: x[11,6] - y[6] <= 0
 x<y[11,7]: x[11,7] - y[7] <= 0
 x<y[11,8]: x[11,8] - y[8] <= 0
 x<y[11,9]: x[11,9] - y[9] <= 0
 x<y[11,10]: x[11,10] - y[10] <= 0
 x<y[11,11]: x[11,11] - y[11] <= 0
 x<y[11,12]: x[11,12] - y[12] <= 0
 x<y[11,13]: x[11,13] - y[13] <= 0
 x<y[11,14]: x[11,14] - y[14] <= 0
 x<y[11,15]: x[11,15] - y[15] <= 0
 x<y[11,16]: x[11,16] - y[16] <= 0
 x<y[11,17]: x[11,17] - y[17] <= 0
 x<y[11,18]: x[11,18] - y[18] <= 0
 x<y[11,19]: x[11,19] - y[19] <= 0
 x<y[12,0]: x[12,0] - y[0] <= 0
 x<y[12,1]: x[12,1] - y[1] <= 0
 x<y[12,2]: x[12,2] - y[2] <= 0
 x<y[12,3]: x[12,3] - y[3] <= 0
 x<y[12,4]: x[12,4] - y[4] <= 0
 x<y[12,5]: x[12,5] - y[5] <= 0
 x<y[12,6]: x[12,6] - y[6] <= 0
 x<y[12,7]: x[12,7] - y[7] <= 0
 x<y[12,8]: x[12,8] - y[8] <= 0
 x<y[12,9]: x[12,9] - y[9] <= 0
 x<y[12,10]: x[12,10] - y[10] <= 0
 x<y[12,11]: x[12,11] - y[11] <= 0
 x<y[12,12]: x[12,12] - y[12] <= 0
 x<y[12,13]: x[12,13] - y[13] <= 0
 x<y[12,14]: x[12,14] - y[14] <= 0
 x<y[12,15]: x[12,15] - y[15] <= 0
 x<y[12,16]: x[12,16] - y[16] <= 0
 x<y[12,17]: x[12,17] - y[17] <= 0
 x<y[12,18]: x[12,18] - y[18] <= 0
 x<y[12,19]: x[12,19] - y[19] <= 0
 x<y[13,0]: x[13,0] - y[0] <= 0
 x<y[13,1]: x[13,1] - y[1] <= 0
 x<y[13,2]: x[13,2] - y[2] <= 0
 x<y[13,3]: x[13,3] - y[3] <= 0
 x<y[13,4]: x[13,4] - y[4] <= 0
 x<y[13,5]: x[13,5] - y[5] <= 0
 x<y[13,6]: x[13,6] - y[6] <= 0
 x<y[13,7]: x[13,7] - y[7] <= 0
 x<y[13,8]: x[13,8] - y[8] <= 0
 x<y[13,9]: x[13,9] - y[9] <= 0
 x<y[13,10]: x[13,10] - y[10] <= 0
 x<y[13,11]: x[13,11] - y[11] <= 0
 x<y[13,12]: x[13,12] - y[12] <= 0
 x<y[13,13]: x[13,13] - y[13] <= 0
 x<y[13,14]: x[13,14] - y[14] <= 0
 x<y[13,15]: x[13,15] - y[15] <= 0
 x<y[13,16]: x[13,16] - y[16] <= 0
 x<y[13,17]: x[13,17] - y[17] <= 0
 x<y[13,18]: x[13,18] - y[18] <= 0
 x<y[13,19]: x[13,19] - y[19] <= 0
 x<y[14,0]: x[14,0] - y[0] <= 0
 x<y[14,1]: x[14,1] - y[1] <= 0
 x<y[14,2]: x[14,2] - y[2] <= 0
 x<y[14,3]: x[14,3] - y[3] <= 0
 x<y[14,4]: x[14,4] - y[4] <= 0
 x<y[14,5]: x[14,5] - y[5] <= 0
 x<y[14,6]: x[14,6] - y[6] <= 0
 x<y[14,7]: x[14,7] - y[7] <= 0
 x<y[14,8]: x[14,8] - y[8] <= 0
 x<y[14,9]: x[14,9] - y[9] <= 0
 x<y[14,10]: x[14,10] - y[10] <= 0
 x<y[14,11]: x[14,11] - y[11] <= 0
 x<y[14,12]: x[14,12] - y[12] <= 0
 x<y[14,13]: x[14,13] - y[13] <= 0
 x<y[14,14]: x[14,14] - y[14] <= 0
 x<y[14,15]: x[14,15] - y[15] <= 0
 x<y[14,16]: x[14,16] - y[16] <= 0
 x<y[14,17]: x[14,17] - y[17] <= 0
 x<y[14,18]: x[14,18] - y[18] <= 0
 x<y[14,19]: x[14,19] - y[19] <= 0
 x<y[15,0]: x[15,0] - y[0] <= 0
 x<y[15,1]: x[15,1] - y[1] <= 0
 x<y[15,2]: x[15,2] - y[2] <= 0
 x<y[15,3]: x[15,3] - y[3] <= 0
 x<y[15,4]: x[15,4] - y[4] <= 0
 x<y[15,5]: x[15,5] - y[5] <= 0
 x<y[15,6]: x[15,6] - y[6] <= 0
 x<y[15,7]: x[15,7] - y[7] <= 0
 x<y[15,8]: x[15,8] - y[8] <= 0
 x<y[15,9]: x[15,9] - y[9] <= 0
 x<y[15,10]: x[15,10] - y[10] <= 0
 x<y[15,11]: x[15,11] - y[11] <= 0
 x<y[15,12]: x[15,12] - y[12] <= 0
 x<y[15,13]: x[15,13] - y[13] <= 0
 x<y[15,14]: x[15,14] - y[14] <= 0
 x<y[15,15]: x[15,15] - y[15] <= 0
 x<y[15,16]: x[15,16] - y[16] <= 0
 x<y[15,17]: x[15,17] - y[17] <= 0
 x<y[15,18]: x[15,18] - y[18] <= 0
 x<y[15,19]: x[15,19] - y[19] <= 0
 x<y[16,0]: x[16,0] - y[0] <= 0
 x<y[16,1]: x[16,1] - y[1] <= 0
 x<y[16,2]: x[16,2] - y[2] <= 0
 x<y[16,3]: x[16,3] - y[3] <= 0
 x<y[16,4]: x[16,4] - y[4] <= 0
 x<y[16,5]: x[16,5] - y[5] <= 0
 x<y[16,6]: x[16,6] - y[6] <= 0
 x<y[16,7]: x[16,7] - y[7] <= 0
 x<y[16,8]: x[16,8] - y[8] <= 0
 x<y[16,9]: x[16,9] - y[9] <= 0
 x<y[16,10]: x[16,10] - y[10] <= 0
 x<y[16,11]: x[16,11] - y[11] <= 0
 x<y[16,12]: x[16,12] - y[12] <= 0
 x<y[16,13]: x[16,13] - y[13] <= 0
 x<y[16,14]: x[16,14] - y[14] <= 0
 x<y[16,15]: x[16,15] - y[15] <= 0
 x<y[16,16]: x[16,16] - y[16] <= 0
 x<y[16,17]: x[16,17] - y[17] <= 0
 x<y[16,18]: x[16,18] - y[18] <= 0
 x<y[16,19]: x[16,19] - y[19] <= 0
 x<y[17,0]: x[17,0] - y[0] <= 0
 x<y[17,1]: x[17,1] - y[1] <= 0
 x<y[17,2]: x[17,2] - y[2] <= 0
 x<y[17,3]: x[17,3] - y[3] <= 0
 x<y[17,4]: x[17,4] - y[4] <= 0
 x<y[17,5]: x[17,5] - y[5] <= 0
 x<y[17,6]: x[17,6] - y[6] <= 0
 x<y[17,7]: x[17,7] - y[7] <= 0
 x<y[17,8]: x[17,8] - y[8] <= 0
 x<y[17,9]: x[17,9] - y[9] <= 0
 x<y[17,10]: x[17,10] - y[10] <= 0
 x<y[17,11]: x[17,11] - y[11] <= 0
 x<y[17,12]: x[17,12] - y[12] <= 0
 x<y[17,13]: x[17,13] - y[13] <= 0
 x<y[17,14]: x[17,14] - y[14] <= 0
 x<y[17,15]: x[17,15] - y[15] <= 0
 x<y[17,16]: x[17,16] - y[16] <= 0
 x<y[17,17]: x[17,17] - y[17] <= 0
 x<y[17,18]: x[17,18] - y[18] <= 0
 x<y[17,19]: x[17,19] - y[19] <= 0
 x<y[18,0]: x[18,0] - y[0] <= 0
 x<y[18,1]: x[18,1] - y[1] <= 0
 x<y[18,2]: x[18,2] - y[2] <= 0
 x<y[18,3]: x[18,3] - y[3] <= 0
 x<y[18,4]: x[18,4] - y[4] <= 0
 x<y[18,5]: x[18,5] - y[5] <= 0
 x<y[18,6]: x[18,6] - y[6] <= 0
 x<y[18,7]: x[18,7] - y[7] <= 0
 x<y[18,8]: x[18,8] - y[8] <= 0
 x<y[18,9]: x[18,9] - y[9] <= 0
 x<y[18,10]: x[18,10] - y[10] <= 0
 x<y[18,11]: x[18,11] - y[11] <= 0
 x<y[18,12]: x[18,12] - y[12] <= 0
 x<y[18,13]: x[18,13] - y[13] <= 0
 x<y[18,14]: x[18,14] - y[14] <= 0
 x<y[18,15]: x[18,15] - y[15] <= 0
 x<y[18,16]: x[18,16] - y[16] <= 0
 x<y[18,17]: x[18,17] - y[17] <= 0
 x<y[18,18]: x[18,18] - y[18] <= 0
 x<y[18,19]: x[18,19] - y[19] <= 0
 x<y[19,0]: x[19,0] - y[0] <= 0
 x<y[19,1]: x[19,1] - y[1] <= 0
 x<y[19,2]: x[19,2] - y[2] <= 0
 x<y[19,3]: x[19,3] - y[3] <= 0
 x<y[19,4]: x[19,4] - y[4] <= 0
 x<y[19,5]: x[19,5] - y[5] <= 0
 x<y[19,6]: x[19,6] - y[6] <= 0
 x<y[19,7]: x[19,7] - y[7] <= 0
 x<y[19,8]: x[19,8] - y[8] <= 0
 x<y[19,9]: x[19,9] - y[9] <= 0
 x<y[19,10]: x[19,10] - y[10] <= 0
 x<y[19,11]: x[19,11] - y[11] <= 0
 x<y[19,12]: x[19,12] - y[12] <= 0
 x<y[19,13]: x[19,13] - y[13] <= 0
 x<y[19,14]: x[19,14] - y[14] <= 0
 x<y[19,15]: x[19,15] - y[15] <= 0
 x<y[19,16]: x[19,16] - y[16] <= 0
 x<y[19,17]: x[19,17] - y[17] <= 0
 x<y[19,18]: x[19,18] - y[18] <= 0
 x<y[19,19]: x[19,19] - y[19] <= 0
 sumx[0]: x[0,0] + x[0,1] + x[0,2] + x[0,3] + x[0,4] + x[0,5] + x[0,6]
   + x[0,7] + x[0,8] + x[0,9] + x[0,10] + x[0,11] + x[0,12] + x[0,13]
   + x[0,14] + x[0,15] + x[0,16] + x[0,17] + x[0,18] + x[0,19] = 1
 sumx[1]: x[1,0] + x[1,1] + x[1,2] + x[1,3] + x[1,4] + x[1,5] + x[1,6]
   + x[1,7] + x[1,8] + x[1,9] + x[1,10] + x[1,11] + x[1,12] + x[1,13]
   + x[1,14] + x[1,15] + x[1,16] + x[1,17] + x[1,18] + x[1,19] = 1
 sumx[2]: x[2,0] + x[2,1] + x[2,2] + x[2,3] + x[2,4] + x[2,5] + x[2,6]
   + x[2,7] + x[2,8] + x[2,9] + x[2,10] + x[2,11] + x[2,12] + x[2,13]
   + x[2,14] + x[2,15] + x[2,16] + x[2,17] + x[2,18] + x[2,19] = 1
 sumx[3]: x[3,0] + x[3,1] + x[3,2] + x[3,3] + x[3,4] + x[3,5] + x[3,6]
   + x[3,7] + x[3,8] + x[3,9] + x[3,10] + x[3,11] + x[3,12] + x[3,13]
   + x[3,14] + x[3,15] + x[3,16] + x[3,17] + x[3,18] + x[3,19] = 1
 sumx[4]: x[4,0] + x[4,1] + x[4,2] + x[4,3] + x[4,4] + x[4,5] + x[4,6]
   + x[4,7] + x[4,8] + x[4,9] + x[4,10] + x[4,11] + x[4,12] + x[4,13]
   + x[4,14] + x[4,15] + x[4,16] + x[4,17] + x[4,18] + x[4,19] = 1
 sumx[5]: x[5,0] + x[5,1] + x[5,2] + x[5,3] + x[5,4] + x[5,5] + x[5,6]
   + x[5,7] + x[5,8] + x[5,9] + x[5,10] + x[5,11] + x[5,12] + x[5,13]
   + x[5,14] + x[5,15] + x[5,16] + x[5,17] + x[5,18] + x[5,19] = 1
 sumx[6]: x[6,0] + x[6,1] + x[6,2] + x[6,3] + x[6,4] + x[6,5] + x[6,6]
   + x[6,7] + x[6,8] + x[6,9] + x[6,10] + x[6,11] + x[6,12] + x[6,13]
   + x[6,14] + x[6,15] + x[6,16] + x[6,17] + x[6,18] + x[6,19] = 1
 sumx[7]: x[7,0] + x[7,1] + x[7,2] + x[7,3] + x[7,4] + x[7,5] + x[7,6]
   + x[7,7] + x[7,8] + x[7,9] + x[7,10] + x[7,11] + x[7,12] + x[7,13]
   + x[7,14] + x[7,15] + x[7,16] + x[7,17] + x[7,18] + x[7,19] = 1
 sumx[8]: x[8,0] + x[8,1] + x[8,2] + x[8,3] + x[8,4] + x[8,5] + x[8,6]
   + x[8,7] + x[8,8] + x[8,9] + x[8,10] + x[8,11] + x[8,12] + x[8,13]
   + x[8,14] + x[8,15] + x[8,16] + x[8,17] + x[8,18] + x[8,19] = 1
 sumx[9]: x[9,0] + x[9,1] + x[9,2] + x[9,3] + x[9,4] + x[9,5] + x[9,6]
   + x[9,7] + x[9,8] + x[9,9] + x[9,10] + x[9,11] + x[9,12] + x[9,13]
   + x[9,14] + x[9,15] + x[9,16] + x[9,17] + x[9,18] + x[9,19] = 1
 sumx[10]: x[10,0] + x[10,1] + x[10,2] + x[10,3] + x[10,4] + x[10,5]
   + x[10,6] + x[10,7] + x[10,8] + x[10,9] + x[10,10] + x[10,11] + x[10,12]
   + x[10,13] + x[10,14] + x[10,15] + x[10,16] + x[10,17] + x[10,18]
   + x[10,19] = 1
 sumx[11]: x[11,0] + x[11,1] + x[11,2] + x[11,3] + x[11,4] + x[11,5]
   + x[11,6] + x[11,7] + x[11,8] + x[11,9] + x[11,10] + x[11,11] + x[11,12]
   + x[11,13] + x[11,14] + x[11,15] + x[11,16] + x[11,17] + x[11,18]
   + x[11,19] = 1
 sumx[12]: x[12,0] + x[12,1] + x[12,2] + x[12,3] + x[12,4] + x[12,5]
   + x[12,6] + x[12,7] + x[12,8] + x[12,9] + x[12,10] + x[12,11] + x[12,12]
   + x[12,13] + x[12,14] + x[12,15] + x[12,16] + x[12,17] + x[12,18]
   + x[12,19] = 1
 sumx[13]: x[13,0] + x[13,1] + x[13,2] + x[13,3] + x[13,4] + x[13,5]
   + x[13,6] + x[13,7] + x[13,8] + x[13,9] + x[13,10] + x[13,11] + x[13,12]
   + x[13,13] + x[13,14] + x[13,15] + x[13,16] + x[13,17] + x[13,18]
   + x[13,19] = 1
 sumx[14]: x[14,0] + x[14,1] + x[14,2] + x[14,3] + x[14,4] + x[14,5]
   + x[14,6] + x[14,7] + x[14,8] + x[14,9] + x[14,10] + x[14,11] + x[14,12]
   + x[14,13] + x[14,14] + x[14,15] + x[14,16] + x[14,17] + x[14,18]
   + x[14,19] = 1
 sumx[15]: x[15,0] + x[15,1] + x[15,2] + x[15,3] + x[15,4] + x[15,5]
   + x[15,6] + x[15,7] + x[15,8] + x[15,9] + x[15,10] + x[15,11] + x[15,12]
   + x[15,13] + x[15,14] + x[15,15] + x[15,16] + x[15,17] + x[15,18]
   + x[15,19] = 1
 sumx[16]: x[16,0] + x[16,1] + x[16,2] + x[16,3] + x[16,4] + x[16,5]
   + x[16,6] + x[16,7] + x[16,8] + x[16,9] + x[16,10] + x[16,11] + x[16,12]
   + x[16,13] + x[16,14] + x[16,15] + x[16,16] + x[16,17] + x[16,18]
   + x[16,19] = 1
 sumx[17]: x[17,0] + x[17,1] + x[17,2] + x[17,3] + x[17,4] + x[17,5]
   + x[17,6] + x[17,7] + x[17,8] + x[17,9] + x[17,10] + x[17,11] + x[17,12]
   + x[17,13] + x[17,14] + x[17,15] + x[17,16] + x[17,17] + x[17,18]
   + x[17,19] = 1
 sumx[18]: x[18,0] + x[18,1] + x[18,2] + x[18,3] + x[18,4] + x[18,5]
   + x[18,6] + x[18,7] + x[18,8] + x[18,9] + x[18,10] + x[18,11] + x[18,12]
   + x[18,13] + x[18,14] + x[18,15] + x[18,16] + x[18,17] + x[18,18]
   + x[18,19] = 1
 sumx[19]: x[19,0] + x[19,1] + x[19,2] + x[19,3] + x[19,4] + x[19,5]
   + x[19,6] + x[19,7] + x[19,8] + x[19,9] + x[19,10] + x[19,11] + x[19,12]
   + x[19,13] + x[19,14] + x[19,15] + x[19,16] + x[19,17] + x[19,18]
   + x[19,19] = 1
Bounds
Binaries
 y[0] y[1] y[2] y[3] y[4] y[5] y[6] y[7] y[8] y[9] y[10] y[11] y[12] y[13]
 y[14] y[15] y[16] y[17] y[18] y[19]
End
